
Gurobi 9.5.2 (mac64[arm]) logging started Mon Apr 24 17:02:25 2023

Set parameter LogFile to value "Java/output/iterative_model/scenario_seed_3_nJob_40_machineCount_1/mip_increment_2/log.txt"
Gurobi Optimizer version 9.5.2 build v9.5.2rc0 (mac64[arm])
Thread count: 8 physical cores, 8 logical processors, using up to 8 threads
Optimize a model with 1145 rows, 6516 columns and 49604 nonzeros
Model fingerprint: 0x4bb37ebd
Variable types: 0 continuous, 6516 integer (6516 binary)
Coefficient statistics:
  Matrix range     [1e+00, 4e+02]
  Objective range  [2e+01, 1e+07]
  Bounds range     [1e+00, 1e+00]
  RHS range        [1e+00, 1e+00]
Found heuristic solution: objective 6.717013e+07
Presolve removed 53 rows and 452 columns
Presolve time: 0.06s
Presolved: 1092 rows, 6064 columns, 45157 nonzeros
Variable types: 0 continuous, 6064 integer (6058 binary)
Found heuristic solution: objective 4.341362e+07

Root relaxation: objective 1.178795e+04, 1744 iterations, 0.05 seconds (0.10 work units)

    Nodes    |    Current Node    |     Objective Bounds      |     Work
 Expl Unexpl |  Obj  Depth IntInf | Incumbent    BestBd   Gap | It/Node Time

     0     0 11787.9481    0   83 4.3414e+07 11787.9481   100%     -    0s
H    0     0                    2.166309e+07 11787.9481   100%     -    0s
H    0     0                    5629008.0000 11787.9481   100%     -    0s
H    0     0                    1494992.0000 11787.9481  99.2%     -    0s
H    0     0                    1467600.0000 11787.9481  99.2%     -    0s
     0     0 11886.8913    0  152 1467600.00 11886.8913  99.2%     -    0s
H    0     0                    1324016.0000 11886.8913  99.1%     -    0s
H    0     0                    113360.00000 11886.8913  89.5%     -    0s
     0     0 11917.7268    0  136 113360.000 11917.7268  89.5%     -    0s
     0     0 12001.3105    0  159 113360.000 12001.3105  89.4%     -    0s
     0     0 12001.3105    0   88 113360.000 12001.3105  89.4%     -    0s
H    0     0                    113296.00000 12001.3105  89.4%     -    0s
     0     0 12001.3105    0  154 113296.000 12001.3105  89.4%     -    0s
H    0     0                    113072.00000 12001.3105  89.4%     -    0s
     0     0 12012.8860    0  159 113072.000 12012.8860  89.4%     -    0s
     0     0 12014.0097    0  161 113072.000 12014.0097  89.4%     -    0s
     0     0 12046.5575    0  193 113072.000 12046.5575  89.3%     -    0s
H    0     0                    113040.00000 12046.5575  89.3%     -    0s
     0     0 12053.6810    0  184 113040.000 12053.6810  89.3%     -    0s
     0     0 12056.7100    0  192 113040.000 12056.7100  89.3%     -    0s
     0     0 12056.8254    0  191 113040.000 12056.8254  89.3%     -    0s
     0     0 12122.9697    0  207 113040.000 12122.9697  89.3%     -    0s
     0     0 12149.0379    0  191 113040.000 12149.0379  89.3%     -    0s
     0     0 12155.4856    0  194 113040.000 12155.4856  89.2%     -    0s
     0     0 12156.3683    0  206 113040.000 12156.3683  89.2%     -    0s
     0     0 12156.7329    0  198 113040.000 12156.7329  89.2%     -    0s
     0     0 12301.1103    0  193 113040.000 12301.1103  89.1%     -    0s
     0     0 12316.2865    0  204 113040.000 12316.2865  89.1%     -    0s
     0     0 12322.8959    0  210 113040.000 12322.8959  89.1%     -    0s
     0     0 12323.4808    0  228 113040.000 12323.4808  89.1%     -    0s
     0     0 12323.8200    0  218 113040.000 12323.8200  89.1%     -    0s
     0     0 12323.8790    0  220 113040.000 12323.8790  89.1%     -    0s
     0     0 12365.7135    0  233 113040.000 12365.7135  89.1%     -    0s
     0     0 12385.3634    0  229 113040.000 12385.3634  89.0%     -    0s
     0     0 12389.0667    0  244 113040.000 12389.0667  89.0%     -    0s
     0     0 12390.2657    0  242 113040.000 12390.2657  89.0%     -    0s
     0     0 12390.3504    0  247 113040.000 12390.3504  89.0%     -    0s
H    0     0                    84688.000000 12390.3504  85.4%     -    0s
     0     0 12457.9180    0  259 84688.0000 12457.9180  85.3%     -    0s
     0     0 12468.8634    0  258 84688.0000 12468.8634  85.3%     -    0s
     0     0 12470.3560    0  260 84688.0000 12470.3560  85.3%     -    0s
     0     0 12470.4453    0  265 84688.0000 12470.4453  85.3%     -    0s
H    0     0                    84528.000000 12470.4453  85.2%     -    0s
     0     0 12507.2306    0  271 84528.0000 12507.2306  85.2%     -    0s
H    0     0                    84464.000000 12507.2306  85.2%     -    0s
H    0     0                    84336.000000 12507.2306  85.2%     -    1s
     0     0 12518.2445    0  274 84336.0000 12518.2445  85.2%     -    1s
     0     0 12519.9498    0  283 84336.0000 12519.9498  85.2%     -    1s
H    0     0                    78160.000000 12519.9498  84.0%     -    1s
     0     0 12520.1728    0  283 78160.0000 12520.1728  84.0%     -    1s
H    0     0                    77968.000000 12520.1728  83.9%     -    1s
H    0     0                    77840.000000 12520.1728  83.9%     -    1s
H    0     0                    77712.000000 12520.1728  83.9%     -    1s
H    0     0                    77680.000000 12520.1728  83.9%     -    1s
H    0     0                    65328.000000 12520.1728  80.8%     -    1s
     0     0 12554.6836    0  291 65328.0000 12554.6836  80.8%     -    1s
H    0     0                    65264.000000 12554.6836  80.8%     -    1s
     0     0 12557.6371    0  285 65264.0000 12557.6371  80.8%     -    1s
     0     0 12558.3771    0  284 65264.0000 12558.3771  80.8%     -    1s
H    0     0                    65200.000000 12558.3771  80.7%     -    1s
     0     0 12587.0724    0  288 65200.0000 12587.0724  80.7%     -    1s
H    0     0                    55728.000000 12587.0724  77.4%     -    1s
H    0     0                    55664.000000 12587.0724  77.4%     -    1s
H    0     0                    55504.000000 12587.0724  77.3%     -    1s
     0     0 12593.5601    0  301 55504.0000 12593.5601  77.3%     -    1s
     0     0 12595.6877    0  312 55504.0000 12595.6877  77.3%     -    1s
     0     0 12597.4451    0  309 55504.0000 12597.4451  77.3%     -    1s
     0     0 12601.8148    0  324 55504.0000 12601.8148  77.3%     -    1s
     0     0 12602.3383    0  322 55504.0000 12602.3383  77.3%     -    1s
H    0     0                    46992.000000 12602.3383  73.2%     -    1s
H    0     0                    41616.000000 12602.3383  69.7%     -    1s
H    0     0                    41552.000000 12602.3383  69.7%     -    1s
     0     0 12633.7916    0  303 41552.0000 12633.7916  69.6%     -    1s
H    0     0                    41520.000000 12633.7916  69.6%     -    1s
H    0     0                    40144.000000 12633.7916  68.5%     -    1s
     0     0 12648.9480    0  305 40144.0000 12648.9480  68.5%     -    1s
H    0     0                    39984.000000 12648.9480  68.4%     -    1s
     0     0 12651.3572    0  316 39984.0000 12651.3572  68.4%     -    1s
     0     0 12651.7388    0  302 39984.0000 12651.7388  68.4%     -    1s
H    0     0                    15888.000000 12651.7388  20.4%     -    1s
     0     0 12770.3904    0  278 15888.0000 12770.3904  19.6%     -    1s
H    0     0                    15856.000000 12770.3904  19.5%     -    1s
H    0     0                    15760.000000 12770.3904  19.0%     -    1s
     0     0 12807.5831    0  293 15760.0000 12807.5831  18.7%     -    1s
     0     0 12811.3167    0  293 15760.0000 12811.3167  18.7%     -    1s
     0     0 12813.7760    0  309 15760.0000 12813.7760  18.7%     -    1s
H    0     0                    15728.000000 12813.7760  18.5%     -    1s
     0     0 12813.9782    0  308 15728.0000 12813.9782  18.5%     -    1s
H    0     0                    15696.000000 12813.9782  18.4%     -    1s
     0     0 13108.0628    0  304 15696.0000 13108.0628  16.5%     -    1s
H    0     0                    15632.000000 13108.0628  16.1%     -    1s
     0     0 13202.7687    0  291 15632.0000 13202.7687  15.5%     -    1s
     0     0 13207.3916    0  292 15632.0000 13207.3916  15.5%     -    1s
     0     0 13208.9683    0  316 15632.0000 13208.9683  15.5%     -    1s
     0     0 13209.7249    0  317 15632.0000 13209.7249  15.5%     -    1s
     0     0 14132.1980    0  253 15632.0000 14132.1980  9.59%     -    2s
     0     0 14367.1518    0  262 15632.0000 14367.1518  8.09%     -    2s
     0     0 14385.5496    0  264 15632.0000 14385.5496  7.97%     -    2s
     0     0 14387.2514    0  281 15632.0000 14387.2514  7.96%     -    2s
     0     0 15051.3850    0  236 15632.0000 15051.3850  3.71%     -    2s
     0     0 15079.9097    0  244 15632.0000 15079.9097  3.53%     -    2s
H    0     0                    15568.000000 15079.9097  3.14%     -    2s
     0     0 15099.5016    0  275 15568.0000 15099.5016  3.01%     -    2s
     0     0 15104.1172    0  274 15568.0000 15104.1172  2.98%     -    2s
     0     0 15105.7252    0  295 15568.0000 15105.7252  2.97%     -    2s
     0     0 15118.1372    0  277 15568.0000 15118.1372  2.89%     -    2s
     0     0 15118.1372    0   92 15568.0000 15118.1372  2.89%     -    2s
     0     0 15118.1372    0  180 15568.0000 15118.1372  2.89%     -    2s
     0     0 15118.1372    0  216 15568.0000 15118.1372  2.89%     -    2s
     0     0 15118.1372    0  244 15568.0000 15118.1372  2.89%     -    2s
     0     0 15118.1372    0  245 15568.0000 15118.1372  2.89%     -    2s
     0     0 15118.1372    0  249 15568.0000 15118.1372  2.89%     -    2s
     0     0 15118.1372    0  265 15568.0000 15118.1372  2.89%     -    2s
     0     0 15118.7643    0  283 15568.0000 15118.7643  2.89%     -    2s
     0     0 15118.9173    0  280 15568.0000 15118.9173  2.88%     -    2s
     0     0 15119.5370    0  271 15568.0000 15119.5370  2.88%     -    2s
     0     0 15119.5928    0  251 15568.0000 15119.5928  2.88%     -    2s
     0     0 15125.6644    0  285 15568.0000 15125.6644  2.84%     -    2s
     0     0 15126.2855    0  285 15568.0000 15126.2855  2.84%     -    2s
     0     0 15132.5174    0  280 15568.0000 15132.5174  2.80%     -    2s
     0     0 15136.1682    0  277 15568.0000 15136.1682  2.77%     -    2s
     0     0 15137.1897    0  282 15568.0000 15137.1897  2.77%     -    2s
     0     0 15137.3031    0  288 15568.0000 15137.3031  2.77%     -    2s
     0     0 15140.7941    0  280 15568.0000 15140.7941  2.74%     -    2s
     0     0 15141.5220    0  291 15568.0000 15141.5220  2.74%     -    2s
     0     0 15141.9571    0  295 15568.0000 15141.9571  2.74%     -    2s
     0     0 15143.5155    0  283 15568.0000 15143.5155  2.73%     -    2s
     0     0 15143.5155    0  280 15568.0000 15143.5155  2.73%     -    2s
     0     2 15144.0009    0  280 15568.0000 15144.0009  2.72%     -    2s
H   35    28                    15472.000000 15178.7445  1.90%   331    3s
H   71    31                    15440.000000 15187.3256  1.64%   249    3s

Cutting planes:
  Cover: 2
  Clique: 59
  MIR: 118
  StrongCG: 41
  GUB cover: 64
  Zero half: 2
  Mod-K: 1
  Relax-and-lift: 2

Explored 393 nodes (88949 simplex iterations) in 3.68 seconds (6.38 work units)
Thread count was 8 (of 8 available processors)

Solution count 10: 15440 15472 15568 ... 39984

Optimal solution found (tolerance 1.00e-04)
Best objective 1.544000000000e+04, best bound 1.544000000000e+04, gap 0.0000%

Gurobi 9.5.2 (mac64[arm]) logging started Mon Apr 24 17:02:29 2023

Set parameter LogFile to value "Java/output/iterative_model/scenario_seed_3_nJob_40_machineCount_1/mip_increment_2/log.txt"
Gurobi Optimizer version 9.5.2 build v9.5.2rc0 (mac64[arm])
Thread count: 8 physical cores, 8 logical processors, using up to 8 threads
Optimize a model with 1139 rows, 4584 columns and 33574 nonzeros
Model fingerprint: 0x8322a3cf
Variable types: 0 continuous, 4584 integer (4584 binary)
Coefficient statistics:
  Matrix range     [1e+00, 4e+02]
  Objective range  [3e+02, 2e+06]
  Bounds range     [1e+00, 1e+00]
  RHS range        [1e+00, 1e+00]
Found heuristic solution: objective 7066256.0000
Presolve removed 288 rows and 303 columns
Presolve time: 0.04s
Presolved: 851 rows, 4281 columns, 30374 nonzeros
Variable types: 0 continuous, 4281 integer (4275 binary)
Found heuristic solution: objective 5703440.0000

Root relaxation: objective 6.788571e+03, 589 iterations, 0.01 seconds (0.02 work units)

    Nodes    |    Current Node    |     Objective Bounds      |     Work
 Expl Unexpl |  Obj  Depth IntInf | Incumbent    BestBd   Gap | It/Node Time

     0     0 6788.57143    0   35 5703440.00 6788.57143   100%     -    0s
H    0     0                    4323688.0000 6788.57143   100%     -    0s
H    0     0                    1505912.0000 6788.57143   100%     -    0s
H    0     0                    1472904.0000 6788.57143   100%     -    0s
H    0     0                    6968.0000000 6793.68048  2.50%     -    0s
     0     0 6793.68048    0   74 6968.00000 6793.68048  2.50%     -    0s
H    0     0                    6952.0000000 6793.68048  2.28%     -    0s
H    0     0                    6920.0000000 6793.68048  1.83%     -    0s
     0     0 6797.10789    0   83 6920.00000 6797.10789  1.78%     -    0s
     0     0 6797.10789    0   37 6920.00000 6797.10789  1.78%     -    0s
     0     0 6799.80076    0   85 6920.00000 6799.80076  1.74%     -    0s
     0     0 6800.41097    0   91 6920.00000 6800.41097  1.73%     -    0s
     0     0 6801.11191    0   94 6920.00000 6801.11191  1.72%     -    0s
     0     0 6801.22002    0   93 6920.00000 6801.22002  1.72%     -    0s
     0     0 6801.23886    0   92 6920.00000 6801.23886  1.72%     -    0s
     0     0 6801.24404    0   93 6920.00000 6801.24404  1.72%     -    0s
     0     0 6806.88918    0  113 6920.00000 6806.88918  1.63%     -    0s
H    0     0                    6912.0000000 6806.88918  1.52%     -    0s
     0     0 6812.61502    0  110 6912.00000 6812.61502  1.44%     -    0s
     0     0 6812.67169    0  116 6912.00000 6812.67169  1.44%     -    0s
     0     0 6812.67272    0  117 6912.00000 6812.67272  1.44%     -    0s
H    0     0                    6880.0000000 6814.75821  0.95%     -    0s
     0     0 6818.64143    0  137 6880.00000 6818.64143  0.89%     -    0s
     0     0 6823.38749    0  142 6880.00000 6823.38749  0.82%     -    0s
     0     0 6824.91665    0  150 6880.00000 6824.91665  0.80%     -    0s
     0     0 6825.18651    0  155 6880.00000 6825.18651  0.80%     -    0s
     0     0 6825.21696    0  153 6880.00000 6825.21696  0.80%     -    0s
     0     0 6825.34975    0  153 6880.00000 6825.34975  0.79%     -    0s
     0     0 6840.00000    0  149 6880.00000 6840.00000  0.58%     -    0s
     0     0 6841.71429    0  147 6880.00000 6841.71429  0.56%     -    0s
     0     0 6841.71429    0   35 6880.00000 6841.71429  0.56%     -    0s
     0     0 6841.71429    0  107 6880.00000 6841.71429  0.56%     -    0s
     0     0 6841.71429    0  131 6880.00000 6841.71429  0.56%     -    0s
     0     0 6841.71429    0  143 6880.00000 6841.71429  0.56%     -    0s
     0     0 6841.71429    0  152 6880.00000 6841.71429  0.56%     -    0s
     0     0 6841.71429    0  155 6880.00000 6841.71429  0.56%     -    0s
     0     0 6841.71429    0  150 6880.00000 6841.71429  0.56%     -    0s
     0     0 6841.71429    0  152 6880.00000 6841.71429  0.56%     -    0s
     0     0 6841.71429    0  165 6880.00000 6841.71429  0.56%     -    0s
     0     0 6841.71429    0  165 6880.00000 6841.71429  0.56%     -    0s
     0     0 6841.71429    0  163 6880.00000 6841.71429  0.56%     -    0s
     0     0 6841.71429    0  164 6880.00000 6841.71429  0.56%     -    0s
     0     0 6841.71429    0  163 6880.00000 6841.71429  0.56%     -    0s
     0     0 6841.71429    0  189 6880.00000 6841.71429  0.56%     -    0s
     0     0 6841.71429    0  166 6880.00000 6841.71429  0.56%     -    0s
     0     2 6841.71429    0  165 6880.00000 6841.71429  0.56%     -    0s

Cutting planes:
  Gomory: 2
  Cover: 4
  Clique: 29
  MIR: 53
  StrongCG: 17
  GUB cover: 22
  Inf proof: 1
  Zero half: 9
  RLT: 8
  Relax-and-lift: 1

Explored 311 nodes (24273 simplex iterations) in 0.86 seconds (1.15 work units)
Thread count was 8 (of 8 available processors)

Solution count 10: 6880 6912 6920 ... 7.06626e+06

Optimal solution found (tolerance 1.00e-04)
Best objective 6.880000000000e+03, best bound 6.880000000000e+03, gap 0.0000%

Gurobi 9.5.2 (mac64[arm]) logging started Mon Apr 24 17:02:30 2023

Set parameter LogFile to value "Java/output/iterative_model/scenario_seed_3_nJob_40_machineCount_1/mip_increment_2/log.txt"
Gurobi Optimizer version 9.5.2 build v9.5.2rc0 (mac64[arm])
Thread count: 8 physical cores, 8 logical processors, using up to 8 threads
Optimize a model with 1160 rows, 4482 columns and 33921 nonzeros
Model fingerprint: 0xce59974d
Variable types: 0 continuous, 4482 integer (4482 binary)
Coefficient statistics:
  Matrix range     [1e+00, 4e+02]
  Objective range  [2e+02, 2e+05]
  Bounds range     [1e+00, 1e+00]
  RHS range        [1e+00, 1e+00]
Presolve removed 499 rows and 475 columns
Presolve time: 0.04s
Presolved: 661 rows, 4007 columns, 29590 nonzeros
Variable types: 0 continuous, 4007 integer (3999 binary)

Root relaxation: objective 7.670207e+03, 2761 iterations, 0.06 seconds (0.11 work units)

    Nodes    |    Current Node    |     Objective Bounds      |     Work
 Expl Unexpl |  Obj  Depth IntInf | Incumbent    BestBd   Gap | It/Node Time

     0     0 7670.20690    0   92          - 7670.20690      -     -    0s
H    0     0                    486698.00000 7670.20690  98.4%     -    0s
H    0     0                    375246.00000 7670.20690  98.0%     -    0s
H    0     0                    375108.00000 7677.18428  98.0%     -    0s
     0     0 7677.18428    0  136 375108.000 7677.18428  98.0%     -    0s
H    0     0                    371108.00000 7677.18428  97.9%     -    0s
H    0     0                    331388.00000 7677.18428  97.7%     -    0s
     0     0 7677.18428    0  136 331388.000 7677.18428  97.7%     -    0s
H    0     0                    286510.00000 7682.55632  97.3%     -    0s
     0     0 7682.55632    0  110 286510.000 7682.55632  97.3%     -    0s
H    0     0                    263000.00000 7682.55632  97.1%     -    0s
H    0     0                    256776.00000 7682.55632  97.0%     -    0s
H    0     0                    231462.00000 7684.02130  96.7%     -    0s
     0     0 7684.02130    0  116 231462.000 7684.02130  96.7%     -    0s
     0     0 7685.07210    0  121 231462.000 7685.07210  96.7%     -    0s
     0     0 7685.09516    0  118 231462.000 7685.09516  96.7%     -    0s
     0     0 7685.09516    0  118 231462.000 7685.09516  96.7%     -    0s
H    0     0                    229118.00000 7690.60557  96.6%     -    0s
     0     0 7690.60557    0  184 229118.000 7690.60557  96.6%     -    0s
H    0     0                    224812.00000 7690.60557  96.6%     -    0s
     0     0 7692.42701    0  195 224812.000 7692.42701  96.6%     -    0s
     0     0 7692.52072    0  197 224812.000 7692.52072  96.6%     -    0s
     0     0 7692.54901    0  192 224812.000 7692.54901  96.6%     -    0s
     0     0 7692.54901    0  201 224812.000 7692.54901  96.6%     -    0s
     0     0 7693.61756    0  203 224812.000 7693.61756  96.6%     -    0s
H    0     0                    224810.00000 7693.61756  96.6%     -    0s
     0     0 7693.99484    0  206 224810.000 7693.99484  96.6%     -    0s
     0     0 7694.27827    0  209 224810.000 7694.27827  96.6%     -    0s
     0     0 7694.51450    0  212 224810.000 7694.51450  96.6%     -    0s
     0     0 7694.56621    0  211 224810.000 7694.56621  96.6%     -    0s
     0     0 7694.57747    0  214 224810.000 7694.57747  96.6%     -    0s
     0     0 7694.57747    0  216 224810.000 7694.57747  96.6%     -    0s
     0     0 7694.81679    0  217 224810.000 7694.81679  96.6%     -    0s
H    0     0                    223910.00000 7694.81679  96.6%     -    0s
H    0     0                    79656.000000 7694.82823  90.3%     -    0s
     0     0 7694.82823    0  220 79656.0000 7694.82823  90.3%     -    0s
     0     0 7696.08970    0  224 79656.0000 7696.08970  90.3%     -    0s
H    0     0                    79652.000000 7696.08970  90.3%     -    0s
H    0     0                    77012.000000 7696.08970  90.0%     -    0s
     0     0 7696.13292    0  238 77012.0000 7696.13292  90.0%     -    0s
     0     0 7696.16250    0  242 77012.0000 7696.16250  90.0%     -    0s
     0     0 7696.16278    0  245 77012.0000 7696.16278  90.0%     -    0s
H    0     0                    72992.000000 7697.49269  89.5%     -    0s
     0     0 7697.49269    0  232 72992.0000 7697.49269  89.5%     -    0s
H    0     0                    72990.000000 7697.49269  89.5%     -    0s
H    0     0                    72986.000000 7697.49269  89.5%     -    0s
H    0     0                    12198.000000 7697.49269  36.9%     -    0s
     0     0 7697.53239    0  231 12198.0000 7697.53239  36.9%     -    0s
     0     0 7697.56490    0  243 12198.0000 7697.56490  36.9%     -    0s
     0     0 7697.57973    0  232 12198.0000 7697.57973  36.9%     -    0s
     0     0 7697.96443    0  247 12198.0000 7697.96443  36.9%     -    0s
H    0     0                    12188.000000 7697.96443  36.8%     -    0s
     0     0 7698.11103    0  248 12188.0000 7698.11103  36.8%     -    0s
     0     0 7698.28642    0  257 12188.0000 7698.28642  36.8%     -    0s
     0     0 7698.29081    0  259 12188.0000 7698.29081  36.8%     -    0s
     0     0 7698.50728    0  256 12188.0000 7698.50728  36.8%     -    1s
     0     0 7698.65978    0  262 12188.0000 7698.65978  36.8%     -    1s
     0     0 7698.76075    0  259 12188.0000 7698.76075  36.8%     -    1s
     0     0 7698.76768    0  261 12188.0000 7698.76768  36.8%     -    1s
     0     0 7699.70962    0  268 12188.0000 7699.70962  36.8%     -    1s
     0     0 7699.82097    0  265 12188.0000 7699.82097  36.8%     -    1s
     0     0 7699.82097    0  264 12188.0000 7699.82097  36.8%     -    1s
H    0     0                    7718.0000000 7700.77733  0.22%     -    1s
     0     0 7702.73366    0  231 7718.00000 7702.73366  0.20%     -    1s
     0     0 7702.85391    0  237 7718.00000 7702.85391  0.20%     -    1s
     0     0 7702.87937    0  237 7718.00000 7702.87937  0.20%     -    1s
     0     0 7702.87937    0  240 7718.00000 7702.87937  0.20%     -    1s
     0     0 7704.02148    0  221 7718.00000 7704.02148  0.18%     -    1s
     0     0 7704.02148    0   79 7718.00000 7704.02148  0.18%     -    1s
     0     0 7704.02148    0  135 7718.00000 7704.02148  0.18%     -    1s
     0     0 7704.02148    0   53 7718.00000 7704.02148  0.18%     -    1s
     0     0 7704.02148    0  157 7718.00000 7704.02148  0.18%     -    1s
     0     0 7704.62044    0  161 7718.00000 7704.62044  0.17%     -    1s
     0     0 7705.15149    0  179 7718.00000 7705.15149  0.17%     -    1s
     0     0 7705.45032    0  184 7718.00000 7705.45032  0.16%     -    1s
     0     0 7705.48562    0  186 7718.00000 7705.48562  0.16%     -    1s
     0     0 7705.50790    0  187 7718.00000 7705.50790  0.16%     -    1s
     0     0 7705.50790    0  188 7718.00000 7705.50790  0.16%     -    1s
     0     0 7708.20353    0  163 7718.00000 7708.20353  0.13%     -    1s
     0     0 7708.24000    0  162 7718.00000 7708.24000  0.13%     -    1s
     0     0 7708.24000    0  166 7718.00000 7708.24000  0.13%     -    1s
     0     0 7713.22905    0  163 7718.00000 7713.22905  0.06%     -    1s
     0     0 7713.41403    0  180 7718.00000 7713.41403  0.06%     -    1s
     0     0 7713.47011    0  178 7718.00000 7713.47011  0.06%     -    1s
     0     0 7713.47011    0  178 7718.00000 7713.47011  0.06%     -    1s
     0     0 7714.41441    0  165 7718.00000 7714.41441  0.05%     -    1s
     0     0     cutoff    0      7718.00000 7718.00000  0.00%     -    1s

Explored 1 nodes (14344 simplex iterations) in 1.58 seconds (2.31 work units)
Thread count was 8 (of 8 available processors)

Solution count 10: 7718 7718 12188 ... 79656

Optimal solution found (tolerance 1.00e-04)
Best objective 7.718000000000e+03, best bound 7.718000000000e+03, gap 0.0000%

Gurobi 9.5.2 (mac64[arm]) logging started Mon Apr 24 17:02:32 2023

Set parameter LogFile to value "Java/output/iterative_model/scenario_seed_3_nJob_40_machineCount_1/mip_increment_2/log.txt"
Gurobi Optimizer version 9.5.2 build v9.5.2rc0 (mac64[arm])
Thread count: 8 physical cores, 8 logical processors, using up to 8 threads
Optimize a model with 2358 rows, 40906 columns and 503357 nonzeros
Model fingerprint: 0xb847c8da
Variable types: 0 continuous, 40906 integer (40906 binary)
Coefficient statistics:
  Matrix range     [1e+00, 4e+02]
  Objective range  [1e+00, 1e+07]
  Bounds range     [1e+00, 1e+00]
  RHS range        [1e+00, 1e+00]

Warning: Completing partial solution with 40793 unfixed non-continuous variables out of 40906
User MIP start produced solution with objective 22283 (0.03s)
Loaded user MIP start with objective 22283

Presolve removed 42 rows and 3329 columns
Presolve time: 0.80s
Presolved: 2316 rows, 37577 columns, 450541 nonzeros
Variable types: 0 continuous, 37577 integer (37555 binary)

Root simplex log...

Iteration    Objective       Primal Inf.    Dual Inf.      Time
   32821    1.8967045e+04   9.959559e+04   0.000000e+00      5s
   37589    1.9080265e+04   0.000000e+00   0.000000e+00      6s

Root relaxation: objective 1.908027e+04, 37589 iterations, 5.02 seconds (12.19 work units)

    Nodes    |    Current Node    |     Objective Bounds      |     Work
 Expl Unexpl |  Obj  Depth IntInf | Incumbent    BestBd   Gap | It/Node Time

     0     0 19080.2654    0  311 22283.0000 19080.2654  14.4%     -    6s
H    0     0                    21701.000000 19080.2654  12.1%     -    6s
H    0     0                    21283.000000 19080.2654  10.3%     -    6s
     0     0 19204.2443    0  478 21283.0000 19204.2443  9.77%     -    7s
     0     0 19206.5522    0  379 21283.0000 19206.5522  9.76%     -   11s
H    0     0                    21280.000000 19206.5522  9.74%     -   11s
     0     0 19313.9598    0  541 21280.0000 19313.9598  9.24%     -   13s
     0     0 19329.1108    0  521 21280.0000 19329.1108  9.17%     -   13s
     0     0 19329.4723    0  564 21280.0000 19329.4723  9.17%     -   13s
     0     0 19329.4753    0  565 21280.0000 19329.4753  9.17%     -   13s
     0     0 19370.9813    0  610 21280.0000 19370.9813  8.97%     -   14s
     0     0 19382.1727    0  609 21280.0000 19382.1727  8.92%     -   15s
H    0     0                    21209.000000 19382.1727  8.61%     -   15s
     0     0 19382.6560    0  623 21209.0000 19382.6560  8.61%     -   15s
     0     0 19382.6968    0  670 21209.0000 19382.6968  8.61%     -   15s
     0     0 19461.1530    0  722 21209.0000 19461.1530  8.24%     -   18s
H    0     0                    21195.000000 19461.1530  8.18%     -   18s
     0     0 19499.9561    0  769 21195.0000 19499.9561  8.00%     -   19s
     0     0 19505.8549    0  822 21195.0000 19505.8549  7.97%     -   20s
     0     0 19508.6200    0  792 21195.0000 19508.6200  7.96%     -   20s
     0     0 19508.6828    0  804 21195.0000 19508.6828  7.96%     -   20s
     0     0 19579.9617    0  865 21195.0000 19579.9617  7.62%     -   24s
H    0     0                    21191.000000 19579.9617  7.60%     -   24s
     0     0 19596.7698    0  881 21191.0000 19596.7698  7.52%     -   25s
     0     0 19603.4124    0  922 21191.0000 19603.4124  7.49%     -   26s
     0     0 19605.0775    0  926 21191.0000 19605.0775  7.48%     -   27s
     0     0 19605.7707    0  945 21191.0000 19605.7707  7.48%     -   27s
     0     0 19606.3233    0  940 21191.0000 19606.3233  7.48%     -   27s
     0     0 19606.6440    0  947 21191.0000 19606.6440  7.48%     -   27s
     0     0 19606.7035    0  940 21191.0000 19606.7035  7.48%     -   28s
     0     0 19625.3959    0  975 21191.0000 19625.3959  7.39%     -   29s
     0     0 19639.7843    0  963 21191.0000 19639.7843  7.32%     -   32s
     0     0 19643.8398    0  966 21191.0000 19643.8398  7.30%     -   32s
     0     0 19645.5574    0  972 21191.0000 19645.5574  7.29%     -   33s
     0     0 19645.6473    0  989 21191.0000 19645.6473  7.29%     -   33s
     0     0 19652.0678    0 1052 21191.0000 19652.0678  7.26%     -   34s
     0     0 19665.1189    0 1062 21191.0000 19665.1189  7.20%     -   37s
     0     0 19670.8796    0 1075 21191.0000 19670.8796  7.17%     -   39s
     0     0 19673.0830    0 1078 21191.0000 19673.0830  7.16%     -   40s
     0     0 19673.4018    0 1060 21191.0000 19673.4018  7.16%     -   40s
     0     0 19673.4795    0 1104 21191.0000 19673.4795  7.16%     -   41s
     0     0 19691.9596    0 1058 21191.0000 19691.9596  7.07%     -   43s
     0     0 19696.2940    0 1067 21191.0000 19696.2940  7.05%     -   46s
     0     0 19698.1069    0 1085 21191.0000 19698.1069  7.04%     -   47s
     0     0 19698.8042    0 1073 21191.0000 19698.8042  7.04%     -   47s
     0     0 19699.1322    0 1112 21191.0000 19699.1322  7.04%     -   47s
     0     0 19699.1847    0 1105 21191.0000 19699.1847  7.04%     -   47s
     0     0 19707.2599    0 1137 21191.0000 19707.2599  7.00%     -   49s
H    0     0                    21164.000000 19707.2599  6.88%     -   50s
     0     0 19709.9960    0 1147 21164.0000 19709.9960  6.87%     -   50s
     0     0 19711.7936    0 1156 21164.0000 19711.7936  6.86%     -   51s
     0     0 19712.5592    0 1174 21164.0000 19712.5592  6.86%     -   52s
     0     0 19712.5950    0 1174 21164.0000 19712.5950  6.86%     -   52s
     0     0 19722.7926    0 1124 21164.0000 19722.7926  6.81%     -   54s
H    0     0                    21158.000000 19722.7926  6.78%     -   55s
     0     0 19727.2054    0 1163 21158.0000 19727.2054  6.76%     -   57s
     0     0 19728.7450    0 1194 21158.0000 19728.7450  6.76%     -   58s
     0     0 19729.1321    0 1216 21158.0000 19729.1321  6.75%     -   58s
     0     0 19735.1887    0 1243 21158.0000 19735.1887  6.72%     -   60s
     0     0 19737.7289    0 1247 21158.0000 19737.7289  6.71%     -   62s
     0     0 19738.6717    0 1240 21158.0000 19738.6717  6.71%     -   63s
     0     0 19739.9009    0 1247 21158.0000 19739.9009  6.70%     -   63s
     0     0 19740.2422    0 1245 21158.0000 19740.2422  6.70%     -   64s
     0     0 19744.9821    0 1238 21158.0000 19744.9821  6.68%     -   65s
H    0     0                    21016.000000 19744.9821  6.05%     -   70s
H    0     0                    20950.000000 19744.9821  5.75%     -   70s
H    0     0                    20940.000000 19744.9821  5.71%     -   70s
     0     0 19746.7929    0 1256 20940.0000 19746.7929  5.70%     -   70s
     0     0 19748.5315    0 1270 20940.0000 19748.5315  5.69%     -   71s
     0     0 19748.7151    0 1274 20940.0000 19748.7151  5.69%     -   71s
     0     0 19750.8483    0 1257 20940.0000 19750.8483  5.68%     -   72s
     0     0 19751.9856    0 1271 20940.0000 19751.9856  5.67%     -   73s
H    0     0                    20933.000000 19751.9856  5.64%     -   74s
     0     0 19752.3885    0 1273 20933.0000 19752.3885  5.64%     -   74s
     0     0 19753.1793    0 1299 20933.0000 19753.1793  5.64%     -   75s
     0     0 19753.1793    0 1262 20933.0000 19753.1793  5.64%     -   76s
     0     2 19753.1796    0 1260 20933.0000 19753.1796  5.64%     -   87s
     3     8 19830.9839    2 1185 20933.0000 19759.7615  5.60%  7003   93s
     7    16 19843.4814    3 1199 20933.0000 19783.6286  5.49%  7361  110s
    15    24 19855.7304    4 1181 20933.0000 19792.9565  5.45% 14649  126s
    23    32 20135.3483    4 1105 20933.0000 19792.9565  5.45% 21279  136s
H   31    40                    20893.000000 19803.3559  5.22% 18581  144s
    39    44 19872.0192    5 1161 20893.0000 19803.3559  5.22% 16508  155s
    47    53 20049.2592    6 1152 20893.0000 19817.8179  5.15% 16152  167s
    56    61 19897.7394    6 1114 20893.0000 19817.8179  5.15% 15060  176s
    64    71 19914.6390    7 1128 20893.0000 19834.8933  5.06% 14340  181s
    74    77 20086.8531    7 1095 20893.0000 19834.8933  5.06% 13474  195s
    84    85 19917.5308    8 1062 20893.0000 19834.8933  5.06% 13302  206s
    94    93 19994.3155    9  937 20893.0000 19834.8933  5.06% 13653  217s
   104   103 20001.4918   10  920 20893.0000 19834.8933  5.06% 12972  225s
   118   114 20013.7491   11  894 20893.0000 19834.8933  5.06% 12126  236s
   133   127 20110.8206   13  813 20893.0000 19834.8933  5.06% 11760  249s
   150   140 20154.1777   15  790 20893.0000 19834.8933  5.06% 11187  260s
   169   159 20254.3657   18  775 20893.0000 19834.8933  5.06% 10534  274s
   188   178 20259.8652   21  735 20893.0000 19834.8933  5.06% 10302  289s
   207   197 20292.6754   23  715 20893.0000 19834.8933  5.06%  9997  298s
   230   221 20306.1838   26  718 20893.0000 19834.8933  5.06%  9618  307s
   258   242 20317.6804   31  708 20893.0000 19834.8933  5.06%  8991  317s
   285   261 20331.1628   34  711 20893.0000 19834.8933  5.06%  8673  327s
   310   275 20345.0647   36  725 20893.0000 19834.8933  5.06%  8341  335s
   350   299 20405.9317   39  713 20893.0000 19834.8933  5.06%  7805  344s
H  377   299                    20865.000000 19834.8933  4.94%  7503  344s
H  379   299                    20842.000000 19834.8933  4.83%  7515  344s
   380   326 20474.8297   42  720 20842.0000 19834.8933  4.83%  7551  351s
H  409   347                    20818.000000 19834.8933  4.72%  7360  363s
   438   363 20636.0301   47  701 20818.0000 19834.8933  4.72%  7246  374s
   472   379 20758.1562   50  694 20818.0000 19834.8933  4.72%  7103  387s
   498   391     cutoff   51      20818.0000 19864.2970  4.58%  7096  400s
   518   408 20214.8350    7 1123 20818.0000 19864.2970  4.58%  7191  414s
   539   422 19991.7776    7 1213 20818.0000 19864.2970  4.58%  7251  435s
   561   442 20004.0548    9 1254 20818.0000 19864.2970  4.58%  7385  449s
   585   467 20206.2295   10 1169 20818.0000 19864.2970  4.58%  7473  462s
H  594   467                    20817.000000 19864.2970  4.58%  7422  462s
   614   488 20200.0104   11 1194 20817.0000 19864.2970  4.58%  7463  477s
H  650   510                    20810.000000 19864.2970  4.54%  7409  489s
H  656   508                    20801.000000 19864.2970  4.50%  7416  489s
   687   560 20148.0294   14  885 20801.0000 19864.2970  4.50%  7311  504s
H  745   602                    20800.000000 19864.2970  4.50%  7113  519s
H  777   602                    20799.000000 19864.2970  4.49%  6956  519s
   815   631 20239.8299   24  748 20799.0000 19864.2970  4.49%  6831  534s
H  879   677                    20797.000000 19864.2970  4.48%  6636  550s
H  890   677                    20796.000000 19864.2970  4.48%  6591  550s
   941   702 20446.2204   31  691 20796.0000 19864.2970  4.48%  6458  565s
   995   724 20580.9553   34  639 20796.0000 19864.2970  4.48%  6405  580s
H 1004   724                    20795.000000 19864.2970  4.48%  6393  580s
  1043   772 infeasible   38      20795.0000 19884.3151  4.38%  6374  593s
H 1052   772                    20791.000000 19894.2612  4.31%  6362  593s

Cutting planes:
  Gomory: 9
  Cover: 67
  Implied bound: 1
  Clique: 453
  MIR: 394
  StrongCG: 261
  GUB cover: 280
  Inf proof: 2
  Zero half: 26
  RLT: 12
  Relax-and-lift: 1

Explored 1121 nodes (7139575 simplex iterations) in 593.02 seconds (1969.24 work units)
Thread count was 8 (of 8 available processors)

Solution count 10: 20791 20795 20796 ... 20818

Time limit reached
Best objective 2.079100000000e+04, best bound 1.989500000000e+04, gap 4.3096%
